LatticeConstant 1.0 Ang
%block LatticeVectors
 16.50988400 0.00000000 0.00000000
 0.00000000 17.59025300 0.00000000
 0.00000000 0.00000000 13.82324400
%endblock LatticeVectors

NumberOfAtoms 25
AtomicCoordinatesFormat Ang
%block AtomicCoordinatesAndAtomicSpecies
  5.86050400  8.71574700  4.92341300 1 #  1: C
  7.10106800  9.37219000  4.98105700 1 #  2: C
  8.13542100  8.43727400  5.06677600 2 #  3: N
  8.22545100  5.87852900  5.11525400 1 #  4: C
  7.39612200  4.73062800  5.08160000 1 #  5: C
  5.96734100  4.85525100  5.00293500 1 #  6: C
  5.33788000  6.12124900  4.95551800 1 #  7: C
  6.15766400  7.29029300  4.98350200 1 #  8: C
  7.59388500  7.14925700  5.06681300 1 #  9: C
  4.49340100  9.36691600  4.85374200 1 # 10: C
  7.32020900 10.46360100  4.95186100 3 # 11: H
  9.13592300  8.66634000  5.12791000 3 # 12: H
  4.22468900  6.18147800  4.89510800 3 # 13: H
  5.14707900  3.73523000  4.96616400 4 # 14: O
  7.85498800  3.70996300  5.11102400 3 # 15: H
  9.33687000  5.77377500  5.17249800 3 # 16: H
  5.71582600  2.93706300  5.02842600 3 # 17: H
  3.83331600  9.54277200  6.24618400 1 # 18: C
  4.66272700 10.43664500  7.08028400 2 # 19: N
  5.59179800  9.98496700  7.21673300 3 # 20: H
  4.24641200 10.52731600  8.02758100 3 # 21: H
  2.82698600 10.02858400  6.10512700 3 # 22: H
  3.65156000  8.51951000  6.70108500 3 # 23: H
  4.58152300 10.38186800  4.37584600 3 # 24: H
  3.81085800  8.74946000  4.20433700 3 # 25: H
%endblock AtomicCoordinatesAndAtomicSpecies

NumberOfSpecies 4
%block ChemicalSpeciesLabel
 1 6 C
 2 7 N
 3 1 H
 4 8 O
%endblock ChemicalSpeciesLabel
