LatticeConstant 1.0 Ang
%block LatticeVectors
 16.51893900 0.00000000 0.00000000
 0.00000000 18.37803200 0.00000000
 0.00000000 0.00000000 13.39171800
%endblock LatticeVectors

NumberOfAtoms 25
AtomicCoordinatesFormat Ang
%block AtomicCoordinatesAndAtomicSpecies
 -1.00943400  1.71422300  0.00344400 1 #  1: C
  0.34261600  2.43425300  0.00399400 1 #  2: C
  1.41237600  1.42612300  0.01768400 2 #  3: N
  1.22284700 -1.19413700 -0.00700600 1 #  4: C
  0.31547700 -2.26884700 -0.01498600 1 #  5: C
 -1.06086300 -2.03843600 -0.00636600 1 #  6: C
 -1.54483300 -0.72370700 -0.00176600 1 #  7: C
 -0.63354300  0.36243300 -0.00078600 1 #  8: C
  0.76688600  0.13232300  0.00159400 1 #  9: C
 -2.41822400  2.22929700  0.00644400 1 # 10: C
  0.33576700  3.43435400  0.00667400 3 # 11: H
  2.41176700  1.45322300  0.04018400 3 # 12: H
 -2.53179400 -0.56236700  0.00067400 3 # 13: H
 -2.02627800 -3.21247000 -0.00179000 4 # 14: O
  0.65402700 -3.20977600 -0.02740600 3 # 15: H
  2.20574600 -1.37596700 -0.00744600 3 # 16: H
 -1.52581100 -4.55617000  0.00037700 3 # 17: H
 -3.12017700  2.48594200  1.30698000 1 # 18: C
 -2.89936600  3.68382900  1.99713200 2 # 19: N
 -1.91460300  3.82186200  2.10290600 3 # 20: H
 -3.33417300  3.62669600  2.89584100 3 # 21: H
 -4.10717200  2.45507600  1.14921800 3 # 22: H
 -2.87097400  1.76424300  1.95277300 3 # 23: H
 -2.41231100  3.09395800 -0.49587700 3 # 24: H
 -2.97141900  1.56473100 -0.49587700 3 # 25: H
%endblock AtomicCoordinatesAndAtomicSpecies

NumberOfSpecies 4
%block ChemicalSpeciesLabel
 1 6 C
 2 7 N
 3 1 H
 4 8 O
%endblock ChemicalSpeciesLabel
