LatticeConstant 1.0 Ang
%block LatticeVectors
 16.92746600 0.00000000 0.00000000
 0.00000000 18.91697300 0.00000000
 0.00000000 0.00000000 14.03297300
%endblock LatticeVectors

NumberOfAtoms 30
AtomicCoordinatesFormat Ang
%block AtomicCoordinatesAndAtomicSpecies
 -1.00943400  1.71422300  0.00344400 1 #  1: C
  0.34261600  2.43425300  0.00399400 1 #  2: C
  1.41237600  1.42612300  0.01768400 2 #  3: N
  1.22284700 -1.19413700 -0.00700600 1 #  4: C
  0.31547700 -2.26884700 -0.01498600 1 #  5: C
 -1.06086300 -2.03843600 -0.00636600 1 #  6: C
 -1.54483300 -0.72370700 -0.00176600 1 #  7: C
 -0.63354300  0.36243300 -0.00078600 1 #  8: C
  0.76688600  0.13232300  0.00159400 1 #  9: C
 -2.39124500  2.29782100  0.00672900 1 # 10: C
  0.33576700  3.43435400  0.00667400 3 # 11: H
  2.41176700  1.45322300  0.04018400 3 # 12: H
 -2.53179400 -0.56236700  0.00067400 3 # 13: H
 -1.69591400 -2.81071600 -0.00335600 3 # 14: H
  0.65402700 -3.20977600 -0.02740600 3 # 15: H
  2.20574600 -1.37596700 -0.00744600 3 # 16: H
 -3.66503400  2.34961000 -2.05285900 1 # 17: C
 -2.44154300  3.56713200 -0.79096600 1 # 18: C
 -3.25152300  4.74917000 -2.37790800 1 # 19: C
 -3.39069400  3.65316700 -1.36331000 2 # 20: N
 -3.93251100  1.57880200 -1.29849300 3 # 21: H
 -4.51569900  2.44463600 -2.76201900 3 # 22: H
 -2.77542700  1.98804200 -2.61297900 3 # 23: H
 -3.02604500  5.70719700 -1.86205700 3 # 24: H
 -2.41973200  4.53614300 -3.08382000 3 # 25: H
 -4.18674900  4.88590100 -2.96316300 3 # 26: H
 -3.02858200  1.63599900 -0.38797900 3 # 27: H
 -2.66440700  2.49074600  0.94915300 3 # 28: H
 -2.43964700  4.40673000 -0.24776000 3 # 29: H
 -1.74885100  3.64191300 -1.50831200 3 # 30: H
%endblock AtomicCoordinatesAndAtomicSpecies

NumberOfSpecies 3
%block ChemicalSpeciesLabel
 1 6 C
 2 7 N
 3 1 H
%endblock ChemicalSpeciesLabel
