LatticeConstant 1.0 Ang
%block LatticeVectors
 18.14589600 0.00000000 0.00000000
 0.00000000 19.14808800 0.00000000
 0.00000000 0.00000000 14.30098800
%endblock LatticeVectors

NumberOfAtoms 30
AtomicCoordinatesFormat Ang
%block AtomicCoordinatesAndAtomicSpecies
 10.06035600 10.47413100  4.97563300 1 #  1: C
 11.20788400 11.21194400  5.31015500 1 #  2: C
 12.26941100 10.34485300  5.58767100 2 #  3: N
 12.56144400  7.80833100  5.58947200 1 #  4: C
 11.85447100  6.60451200  5.35166100 1 #  5: C
 10.47097800  6.62267100  4.97219500 1 #  6: C
  9.76616700  7.83910900  4.82207000 1 #  7: C
 10.45175400  9.07272100  5.04901700 1 #  8: C
 11.84642400  9.02727500  5.43356100 1 #  9: C
  8.69111400 11.03224200  4.62891500 1 # 10: C
 11.35589800 12.31274400  5.38431600 3 # 11: H
 13.22055700 10.64184500  5.83943400 3 # 12: H
  8.68744300  7.82979800  4.52756400 3 # 13: H
  9.94150800  5.65431400  4.79698600 3 # 14: H
 12.38181100  5.62478900  5.46273700 3 # 15: H
 13.63949800  7.79911700  5.88944600 3 # 16: H
  6.44371900 12.12298200  2.81607800 1 # 17: C
  8.76415700 12.16926500  3.58043600 1 # 18: C
  7.72251200 14.14815200  2.66368600 1 # 19: C
  7.50544700 12.92156900  3.43920100 2 # 20: N
  6.24444100 11.19712400  3.41785300 3 # 21: H
  5.49360200 12.72388900  2.78645100 3 # 22: H
  6.69252300 11.80795000  1.74978800 3 # 23: H
  8.51837600 14.77287700  3.15401700 3 # 24: H
  8.04218600 13.95183900  1.58845800 3 # 25: H
  6.77350500 14.75056300  2.63440400 3 # 26: H
  8.04725000 10.19073900  4.25240900 3 # 27: H
  8.17756100 11.43554200  5.54859600 3 # 28: H
  9.54754300 12.90762900  3.90930800 3 # 29: H
  9.12520800 11.74423000  2.58637100 3 # 30: H
%endblock AtomicCoordinatesAndAtomicSpecies

NumberOfSpecies 3
%block ChemicalSpeciesLabel
 1 6 C
 2 7 N
 3 1 H
%endblock ChemicalSpeciesLabel
