LatticeConstant 1.0 Ang
%block LatticeVectors
 18.07831100 0.00000000 0.00000000
 0.00000000 20.11815100 0.00000000
 0.00000000 0.00000000 14.34522400
%endblock LatticeVectors

NumberOfAtoms 31
AtomicCoordinatesFormat Ang
%block AtomicCoordinatesAndAtomicSpecies
 11.04628300 11.48426800  4.95322200 1 #  1: C
 12.21028200 12.20854800  5.26459400 1 #  2: C
 13.25726500 11.33269000  5.55741100 2 #  3: N
 13.48850000  8.78742800  5.62626600 1 #  4: C
 12.75248700  7.59316600  5.43296100 1 #  5: C
 11.36504000  7.63369600  5.06317800 1 #  6: C
 10.68569300  8.86084200  4.87527600 1 #  7: C
 11.41096500 10.07803800  5.06194500 1 #  8: C
 12.80579800 10.01776900  5.43948700 1 #  9: C
  9.68418800 12.05681800  4.60487800 1 # 10: C
 12.37527700 13.30820000  5.31189100 3 # 11: H
 14.21621400 11.61539700  5.79771500 3 # 12: H
  9.60688200  8.85087200  4.58673600 3 # 13: H
 10.63618900  6.46518800  4.87282700 4 # 14: O
 13.25433500  6.60247200  5.56875700 3 # 15: H
 14.56793900  8.75113200  5.91371700 3 # 16: H
 11.22918900  5.70286300  5.05164000 3 # 17: H
  7.42326400 13.20215700  2.84023800 1 # 18: C
  9.76444700 13.18058300  3.54337600 1 # 19: C
  8.75897600 15.18856000  2.65296400 1 # 20: C
  8.52502900 13.96914900  3.43315000 2 # 21: N
  7.22041500 12.27563100  3.44048100 3 # 22: H
  6.48962800 13.82835900  2.84594500 3 # 23: H
  7.62764200 12.89090800  1.76368900 3 # 24: H
  9.59005900 15.78512600  3.11962200 3 # 25: H
  9.03833600 14.98315500  1.56849300 3 # 26: H
  7.82964200 15.82101400  2.65492100 3 # 27: H
 10.57783400 13.89786600  3.84327100 3 # 28: H
 10.08072000 12.73537100  2.54352100 3 # 29: H
  9.02536600 11.22075700  4.24295300 3 # 30: H
  9.18147600 12.48047400  5.52135100 3 # 31: H
%endblock AtomicCoordinatesAndAtomicSpecies

NumberOfSpecies 4
%block ChemicalSpeciesLabel
 1 6 C
 2 7 N
 3 1 H
 4 8 O
%endblock ChemicalSpeciesLabel
